p cnf 10 50
-8 -2 -4 0
-4 -10 1 0
6 -9 3 0
9 2 1 0
-10 -8 -4 0
-3 -2 9 0
-6 8 -10 0
-6 3 5 0
4 1 5 0
-7 3 9 0
-7 -5 -10 0
3 5 8 0
-3 5 -6 0
7 -10 -5 0
-10 -2 4 0
-8 -3 7 0
-1 -7 9 0
5 3 7 0
1 -9 -4 0
7 -3 -5 0
6 -8 5 0
10 5 8 0
9 -4 3 0
-7 3 4 0
5 -1 -2 0
7 10 5 0
4 9 8 0
2 5 -9 0
1 -2 -6 0
1 4 7 0
-2 10 -8 0
8 2 -3 0
5 6 -1 0
1 7 -6 0
5 2 4 0
-1 -6 -5 0
5 8 -3 0
-7 -1 -8 0
5 10 6 0
7 -5 10 0
10 3 -1 0
2 -5 10 0
-7 10 8 0
-1 4 5 0
-4 2 8 0
-7 1 6 0
2 -5 10 0
-3 8 -6 0
-6 -3 -8 0
-2 -5 -8 0
